************************************************************************
file with basedata            : mm63_.bas
initial value random generator: 25426
************************************************************************
projects                      :  1
jobs (incl. supersource/sink ):  12
horizon                       :  76
RESOURCES
  - renewable                 :  2   R
  - nonrenewable              :  2   N
  - doubly constrained        :  0   D
************************************************************************
PROJECT INFORMATION:
pronr.  #jobs rel.date duedate tardcost  MPM-Time
    1     10      0       14        0       14
************************************************************************
PRECEDENCE RELATIONS:
jobnr.    #modes  #successors   successors
   0        1          3           1   2   3
   1        3          1           5
   2        3          1           8
   3        3          1           4
   4        3          2           6   8
   5        3          3           6   7   8
   6        3          2           9  10
   7        3          2           9  10
   8        3          1          11
   9        3          1          11
  10        3          1          11
  11        1          0        
************************************************************************
REQUESTS/DURATIONS:
jobnr. mode duration  R 1  R 2  R 3  R 4  E(W 1)  E(W 2)
------------------------------------------------------------------------
  0      1     0       0    0    0    0     0       0
  1      1     6      10    6    3    7    96      60
  2      1     1       5    3    7    5     8      12
  3      1     2       8    8   10    6    32      32
  4      1     6       8    8    6    9    96      90
  5      1     3       6    6    8    5    36      39
  6      1     2       3    2    7    5    10      24
  7      1     2       8    5   10   10    26      40
  8      1     5       3    3   10    3    30      65
  9      1     2       8    6    6    6    28      24
 10      1     2       8    4   10    9    24      38
 11      1     0       0    0    0    0     0       0
************************************************************************
RESOURCEAVAILABILITIES:
  R 1  R 2
   40   127
************************************************************************
RESOURCE LIMITS:
jobnr.  l(R 1)  u(R 1)  l(R 2)  u(R 2)
------------------------------------------------------------------------
  0        0       0       0       0
  1        8      16       6      10
  2        5       8       7      12
  3        8      16       8      16
  4        8      16       8      15
  5        6      12       7      13
  6        3       5       7      12
  7        7      13      10      20
  8        4       6       7      13
  9        7      14       6      12
 10        6      12      10      19
 11        0       0       0       0
************************************************************************
SCENARIOS:
------------------------------------------------------------------------
RESOURCE k = 1
s = 1: (0, 121, 8, 24, 82, 39, 8, 30, 40, 46, 25, 0)
s = 2: (0, 62, 11, 32, 74, 41, 9, 28, 19, 27, 27, 0)
s = 3: (0, 138, 9, 22, 124, 35, 12, 30, 40, 28, 15, 0)
s = 4: (0, 103, 12, 39, 77, 42, 13, 32, 37, 25, 33, 0)
s = 5: (0, 83, 9, 26, 116, 34, 9, 25, 22, 23, 23, 0)
s = 6: (0, 103, 7, 31, 124, 45, 15, 31, 30, 34, 30, 0)
s = 7: (0, 151, 11, 22, 61, 31, 14, 32, 26, 24, 42, 0)
s = 8: (0, 89, 7, 37, 99, 42, 12, 20, 38, 25, 18, 0)
s = 9: (0, 92, 14, 31, 138, 32, 16, 45, 25, 20, 14, 0)
s = 10: (0, 61, 9, 28, 84, 24, 8, 21, 49, 15, 20, 0)
s = 11: (0, 117, 7, 41, 75, 21, 12, 16, 32, 20, 33, 0)
s = 12: (0, 97, 8, 26, 93, 24, 10, 45, 26, 30, 30, 0)
s = 13: (0, 82, 6, 33, 79, 36, 15, 22, 25, 18, 37, 0)
s = 14: (0, 83, 8, 33, 81, 38, 12, 22, 30, 31, 29, 0)
s = 15: (0, 123, 8, 25, 76, 34, 14, 25, 35, 23, 26, 0)
s = 16: (0, 96, 6, 38, 92, 54, 9, 37, 27, 20, 33, 0)
s = 17: (0, 73, 7, 23, 112, 35, 16, 41, 28, 23, 23, 0)
s = 18: (0, 134, 7, 27, 123, 49, 10, 21, 34, 30, 18, 0)
s = 19: (0, 147, 11, 29, 94, 55, 16, 17, 30, 23, 37, 0)
s = 20: (0, 70, 7, 45, 118, 51, 9, 20, 26, 19, 20, 0)
s = 21: (0, 123, 9, 25, 127, 33, 9, 17, 18, 16, 20, 0)
s = 22: (0, 113, 8, 31, 105, 38, 9, 38, 20, 18, 22, 0)
s = 23: (0, 86, 10, 26, 108, 51, 7, 22, 21, 46, 15, 0)
s = 24: (0, 60, 13, 43, 98, 39, 8, 23, 25, 33, 28, 0)
s = 25: (0, 99, 8, 35, 107, 43, 11, 15, 22, 20, 31, 0)
s = 26: (0, 136, 9, 41, 54, 25, 16, 19, 42, 20, 19, 0)
s = 27: (0, 131, 10, 32, 123, 22, 15, 20, 25, 31, 22, 0)
s = 28: (0, 70, 8, 17, 76, 49, 9, 18, 49, 22, 24, 0)
s = 29: (0, 61, 9, 34, 77, 26, 9, 24, 43, 23, 24, 0)
s = 30: (0, 74, 9, 33, 50, 55, 12, 28, 42, 36, 15, 0)
s = 31: (0, 89, 9, 27, 55, 53, 10, 16, 37, 24, 26, 0)
s = 32: (0, 82, 10, 37, 63, 54, 7, 32, 25, 23, 16, 0)
s = 33: (0, 68, 12, 39, 56, 53, 12, 26, 26, 25, 15, 0)
s = 34: (0, 101, 6, 54, 130, 37, 9, 26, 29, 30, 35, 0)
s = 35: (0, 115, 6, 39, 110, 29, 15, 31, 35, 21, 15, 0)
s = 36: (0, 107, 11, 28, 116, 33, 13, 20, 21, 22, 30, 0)
s = 37: (0, 58, 9, 33, 99, 24, 6, 24, 19, 16, 34, 0)
s = 38: (0, 67, 7, 30, 101, 31, 15, 17, 24, 21, 34, 0)
s = 39: (0, 116, 11, 44, 71, 52, 8, 38, 26, 32, 32, 0)
s = 40: (0, 76, 7, 25, 124, 34, 6, 32, 19, 27, 32, 0)
s = 41: (0, 121, 7, 32, 96, 33, 15, 28, 22, 31, 31, 0)
s = 42: (0, 60, 10, 46, 56, 24, 6, 20, 27, 34, 20, 0)
s = 43: (0, 55, 12, 17, 136, 41, 16, 35, 46, 25, 17, 0)
s = 44: (0, 123, 14, 26, 112, 26, 14, 16, 37, 24, 27, 0)
s = 45: (0, 55, 7, 27, 108, 29, 7, 43, 37, 44, 21, 0)
s = 46: (0, 70, 7, 30, 69, 31, 13, 29, 25, 43, 16, 0)
s = 47: (0, 124, 7, 26, 87, 33, 10, 29, 42, 17, 24, 0)
s = 48: (0, 63, 11, 32, 73, 38, 13, 24, 37, 36, 27, 0)
s = 49: (0, 115, 7, 27, 96, 47, 17, 28, 38, 24, 29, 0)
s = 50: (0, 121, 7, 26, 75, 20, 12, 36, 27, 23, 17, 0)
s = 51: (0, 83, 7, 30, 60, 39, 9, 23, 25, 24, 30, 0)
s = 52: (0, 95, 9, 29, 120, 26, 15, 25, 29, 45, 15, 0)
s = 53: (0, 83, 6, 23, 150, 48, 15, 26, 25, 19, 28, 0)
s = 54: (0, 78, 9, 33, 79, 37, 7, 20, 39, 26, 25, 0)
s = 55: (0, 103, 7, 45, 91, 51, 8, 27, 23, 28, 25, 0)
s = 56: (0, 77, 7, 23, 108, 35, 10, 22, 22, 36, 30, 0)
s = 57: (0, 132, 7, 40, 62, 28, 15, 29, 44, 18, 23, 0)
s = 58: (0, 81, 12, 38, 129, 26, 10, 21, 28, 30, 35, 0)
s = 59: (0, 99, 11, 29, 73, 43, 13, 24, 34, 34, 15, 0)
s = 60: (0, 111, 9, 33, 80, 25, 9, 36, 27, 25, 35, 0)
s = 61: (0, 63, 7, 46, 71, 24, 16, 21, 28, 54, 22, 0)
s = 62: (0, 101, 7, 22, 121, 34, 12, 32, 20, 33, 17, 0)
s = 63: (0, 112, 9, 32, 66, 49, 12, 25, 38, 36, 16, 0)
s = 64: (0, 110, 6, 23, 73, 25, 17, 32, 33, 33, 26, 0)
s = 65: (0, 117, 10, 20, 81, 27, 10, 20, 22, 36, 20, 0)
s = 66: (0, 85, 7, 30, 128, 25, 10, 35, 36, 19, 19, 0)
s = 67: (0, 84, 6, 46, 83, 32, 10, 22, 50, 34, 19, 0)
s = 68: (0, 115, 9, 41, 108, 35, 13, 19, 20, 34, 25, 0)
s = 69: (0, 129, 7, 36, 89, 37, 6, 23, 38, 21, 25, 0)
s = 70: (0, 97, 10, 31, 69, 49, 16, 37, 36, 16, 33, 0)
s = 71: (0, 119, 7, 21, 101, 26, 11, 20, 18, 33, 19, 0)
s = 72: (0, 81, 11, 29, 144, 60, 9, 31, 30, 37, 28, 0)
s = 73: (0, 123, 11, 21, 91, 34, 16, 41, 24, 21, 22, 0)
s = 74: (0, 89, 6, 28, 72, 55, 7, 20, 34, 24, 15, 0)
s = 75: (0, 77, 10, 33, 81, 51, 7, 25, 31, 18, 20, 0)
s = 76: (0, 107, 8, 39, 103, 46, 8, 22, 18, 24, 16, 0)
s = 77: (0, 63, 6, 23, 58, 35, 14, 28, 23, 28, 19, 0)
s = 78: (0, 64, 8, 27, 101, 59, 10, 29, 32, 45, 21, 0)
s = 79: (0, 95, 12, 33, 140, 28, 11, 22, 38, 27, 28, 0)
s = 80: (0, 114, 9, 22, 131, 56, 8, 24, 33, 25, 31, 0)
s = 81: (0, 137, 8, 25, 120, 28, 9, 26, 23, 30, 16, 0)
s = 82: (0, 77, 6, 40, 68, 40, 12, 22, 17, 21, 20, 0)
s = 83: (0, 68, 8, 21, 104, 37, 9, 20, 35, 41, 42, 0)
s = 84: (0, 106, 10, 53, 98, 37, 8, 18, 26, 17, 21, 0)
s = 85: (0, 155, 7, 38, 123, 36, 11, 17, 52, 28, 21, 0)
s = 86: (0, 102, 7, 25, 110, 22, 14, 38, 23, 28, 25, 0)
s = 87: (0, 141, 9, 40, 125, 20, 7, 22, 19, 49, 16, 0)
s = 88: (0, 94, 12, 33, 84, 27, 6, 21, 22, 33, 25, 0)
s = 89: (0, 58, 9, 26, 90, 46, 12, 29, 29, 26, 30, 0)
s = 90: (0, 97, 10, 26, 118, 28, 12, 20, 28, 40, 29, 0)
s = 91: (0, 95, 6, 28, 69, 23, 11, 20, 45, 21, 19, 0)
s = 92: (0, 94, 9, 30, 81, 34, 11, 24, 23, 21, 14, 0)
s = 93: (0, 156, 8, 31, 59, 39, 7, 22, 37, 28, 23, 0)
s = 94: (0, 84, 7, 39, 94, 26, 11, 26, 26, 41, 18, 0)
s = 95: (0, 94, 7, 41, 114, 41, 9, 20, 30, 31, 17, 0)
s = 96: (0, 64, 6, 45, 84, 21, 7, 30, 39, 22, 26, 0)
s = 97: (0, 111, 9, 42, 57, 43, 6, 24, 39, 26, 18, 0)
s = 98: (0, 90, 6, 38, 76, 27, 8, 46, 34, 48, 21, 0)
s = 99: (0, 111, 7, 37, 68, 40, 9, 17, 41, 30, 14, 0)
s = 100: (0, 101, 12, 36, 100, 38, 14, 50, 35, 30, 28, 0)
s = 101: (0, 67, 7, 47, 106, 24, 13, 40, 34, 17, 32, 0)
s = 102: (0, 137, 6, 22, 66, 36, 9, 29, 42, 46, 30, 0)
s = 103: (0, 64, 8, 23, 85, 45, 13, 42, 27, 22, 22, 0)
s = 104: (0, 96, 8, 28, 134, 36, 9, 27, 19, 27, 26, 0)
s = 105: (0, 98, 7, 24, 89, 22, 7, 18, 39, 30, 22, 0)
s = 106: (0, 79, 6, 52, 116, 29, 9, 31, 34, 33, 20, 0)
s = 107: (0, 147, 10, 22, 97, 41, 9, 24, 16, 24, 18, 0)
s = 108: (0, 62, 14, 33, 128, 32, 9, 16, 38, 42, 34, 0)
s = 109: (0, 114, 5, 18, 98, 42, 9, 23, 25, 25, 36, 0)
s = 110: (0, 169, 11, 36, 134, 32, 6, 30, 44, 21, 25, 0)
s = 111: (0, 75, 6, 40, 67, 28, 9, 23, 35, 26, 19, 0)
s = 112: (0, 175, 13, 36, 123, 22, 12, 28, 19, 22, 29, 0)
s = 113: (0, 135, 7, 25, 82, 21, 12, 43, 35, 36, 27, 0)
s = 114: (0, 122, 7, 36, 63, 38, 10, 15, 33, 44, 34, 0)
s = 115: (0, 143, 6, 24, 102, 26, 10, 23, 38, 41, 27, 0)
s = 116: (0, 78, 8, 28, 89, 43, 18, 40, 29, 35, 28, 0)
s = 117: (0, 118, 10, 20, 89, 49, 10, 35, 40, 29, 22, 0)
s = 118: (0, 63, 13, 30, 60, 27, 13, 19, 18, 35, 14, 0)
s = 119: (0, 143, 6, 39, 78, 30, 15, 18, 31, 38, 26, 0)
s = 120: (0, 106, 8, 37, 114, 33, 9, 32, 37, 23, 29, 0)
s = 121: (0, 124, 12, 27, 111, 27, 10, 20, 32, 19, 19, 0)
s = 122: (0, 59, 10, 32, 88, 44, 15, 17, 31, 33, 23, 0)
s = 123: (0, 101, 7, 43, 95, 28, 17, 33, 32, 35, 14, 0)
s = 124: (0, 66, 5, 28, 84, 23, 14, 26, 34, 38, 27, 0)
s = 125: (0, 87, 10, 33, 114, 23, 14, 35, 36, 28, 29, 0)
s = 126: (0, 97, 5, 33, 96, 51, 10, 23, 33, 39, 36, 0)
s = 127: (0, 89, 10, 23, 98, 39, 11, 18, 37, 26, 27, 0)
s = 128: (0, 176, 7, 49, 143, 31, 8, 25, 28, 20, 20, 0)
s = 129: (0, 79, 10, 29, 84, 33, 9, 30, 20, 26, 33, 0)
s = 130: (0, 114, 9, 44, 122, 46, 11, 31, 37, 21, 32, 0)
s = 131: (0, 80, 10, 32, 143, 52, 8, 20, 32, 24, 14, 0)
s = 132: (0, 102, 9, 27, 119, 38, 10, 32, 25, 37, 19, 0)
s = 133: (0, 70, 8, 46, 152, 28, 12, 22, 24, 39, 31, 0)
s = 134: (0, 54, 6, 40, 80, 28, 9, 30, 30, 19, 14, 0)
s = 135: (0, 84, 8, 37, 73, 31, 13, 35, 19, 42, 30, 0)
s = 136: (0, 84, 9, 51, 73, 32, 12, 32, 21, 46, 22, 0)
s = 137: (0, 61, 9, 30, 113, 39, 13, 29, 22, 41, 40, 0)
s = 138: (0, 65, 5, 23, 78, 35, 10, 39, 24, 27, 32, 0)
s = 139: (0, 78, 6, 25, 111, 22, 13, 17, 37, 32, 44, 0)
s = 140: (0, 105, 8, 44, 113, 47, 14, 22, 39, 21, 29, 0)
s = 141: (0, 128, 10, 34, 96, 40, 12, 41, 27, 22, 15, 0)
s = 142: (0, 108, 7, 30, 109, 39, 9, 22, 32, 22, 18, 0)
s = 143: (0, 85, 8, 36, 57, 28, 15, 27, 39, 31, 33, 0)
s = 144: (0, 67, 12, 39, 124, 27, 6, 28, 32, 27, 19, 0)
s = 145: (0, 116, 6, 34, 170, 42, 8, 16, 36, 34, 22, 0)
s = 146: (0, 82, 5, 22, 87, 40, 6, 42, 24, 16, 30, 0)
s = 147: (0, 141, 8, 60, 55, 31, 8, 26, 31, 37, 19, 0)
s = 148: (0, 70, 7, 52, 55, 36, 11, 40, 16, 29, 35, 0)
s = 149: (0, 149, 8, 41, 108, 29, 12, 28, 16, 31, 27, 0)
s = 150: (0, 100, 9, 30, 75, 36, 18, 31, 20, 26, 24, 0)
s = 151: (0, 178, 11, 25, 56, 45, 10, 25, 21, 27, 22, 0)
s = 152: (0, 133, 11, 39, 60, 33, 9, 20, 29, 25, 17, 0)
s = 153: (0, 91, 7, 24, 70, 29, 15, 29, 28, 19, 25, 0)
s = 154: (0, 93, 9, 22, 122, 39, 11, 40, 25, 21, 34, 0)
s = 155: (0, 106, 6, 39, 101, 44, 11, 43, 36, 18, 20, 0)
s = 156: (0, 87, 7, 28, 62, 25, 16, 31, 36, 41, 17, 0)
s = 157: (0, 59, 6, 24, 69, 49, 13, 27, 33, 55, 31, 0)
s = 158: (0, 122, 10, 33, 108, 27, 9, 37, 29, 19, 22, 0)
s = 159: (0, 82, 11, 42, 127, 37, 9, 39, 31, 17, 25, 0)
s = 160: (0, 125, 7, 42, 103, 40, 11, 30, 24, 25, 21, 0)
s = 161: (0, 115, 10, 43, 96, 23, 15, 25, 19, 28, 25, 0)
s = 162: (0, 69, 6, 19, 162, 26, 12, 28, 40, 37, 21, 0)
s = 163: (0, 56, 9, 42, 80, 40, 8, 17, 41, 39, 32, 0)
s = 164: (0, 92, 6, 22, 65, 24, 7, 27, 19, 23, 23, 0)
s = 165: (0, 94, 9, 37, 68, 40, 9, 34, 35, 33, 20, 0)
s = 166: (0, 93, 8, 36, 108, 31, 10, 22, 39, 22, 33, 0)
s = 167: (0, 104, 13, 21, 108, 24, 10, 15, 46, 23, 27, 0)
s = 168: (0, 59, 9, 36, 65, 68, 6, 16, 19, 31, 14, 0)
s = 169: (0, 94, 6, 35, 90, 49, 10, 16, 30, 15, 21, 0)
s = 170: (0, 58, 8, 42, 125, 46, 10, 20, 41, 19, 19, 0)
s = 171: (0, 132, 10, 39, 98, 40, 6, 24, 39, 24, 23, 0)
s = 172: (0, 174, 8, 49, 116, 30, 13, 33, 24, 28, 24, 0)
s = 173: (0, 99, 9, 28, 90, 35, 10, 21, 33, 23, 19, 0)
s = 174: (0, 106, 7, 32, 90, 33, 9, 34, 34, 38, 27, 0)
s = 175: (0, 111, 9, 28, 91, 28, 14, 33, 45, 19, 18, 0)
s = 176: (0, 104, 10, 38, 95, 34, 7, 18, 27, 19, 36, 0)
s = 177: (0, 67, 5, 58, 119, 37, 9, 21, 31, 37, 26, 0)
s = 178: (0, 149, 12, 39, 134, 51, 13, 28, 25, 32, 37, 0)
s = 179: (0, 107, 15, 35, 109, 54, 6, 23, 46, 21, 24, 0)
s = 180: (0, 119, 7, 23, 85, 33, 6, 29, 22, 37, 20, 0)
s = 181: (0, 107, 11, 26, 59, 32, 10, 22, 30, 26, 21, 0)
s = 182: (0, 66, 7, 32, 149, 25, 16, 21, 34, 40, 29, 0)
s = 183: (0, 75, 8, 22, 119, 48, 12, 39, 23, 36, 35, 0)
s = 184: (0, 100, 7, 22, 87, 44, 7, 22, 25, 27, 41, 0)
s = 185: (0, 56, 12, 25, 93, 49, 9, 39, 26, 26, 25, 0)
s = 186: (0, 132, 8, 41, 97, 41, 9, 27, 18, 34, 25, 0)
s = 187: (0, 89, 10, 54, 96, 31, 9, 28, 17, 24, 31, 0)
s = 188: (0, 87, 7, 28, 82, 32, 13, 19, 25, 35, 27, 0)
s = 189: (0, 60, 9, 20, 147, 47, 15, 34, 38, 26, 31, 0)
s = 190: (0, 84, 9, 23, 109, 23, 11, 34, 33, 28, 20, 0)
s = 191: (0, 91, 6, 24, 122, 47, 10, 26, 43, 33, 19, 0)
s = 192: (0, 64, 9, 46, 59, 27, 15, 32, 44, 28, 21, 0)
s = 193: (0, 115, 9, 32, 82, 38, 17, 32, 40, 34, 23, 0)
s = 194: (0, 77, 9, 38, 120, 35, 14, 36, 19, 37, 20, 0)
s = 195: (0, 93, 8, 36, 101, 31, 14, 19, 20, 24, 34, 0)
s = 196: (0, 101, 9, 29, 80, 35, 9, 35, 22, 28, 22, 0)
s = 197: (0, 99, 10, 40, 68, 30, 11, 24, 39, 21, 28, 0)
s = 198: (0, 75, 5, 39, 112, 19, 14, 17, 22, 17, 26, 0)
s = 199: (0, 70, 9, 29, 100, 48, 9, 21, 41, 31, 22, 0)
s = 200: (0, 94, 11, 27, 91, 39, 10, 23, 40, 35, 27, 0)
------------------------------------------------------------------------
RESOURCE k = 2
s = 1: (0, 76, 12, 24, 77, 42, 19, 46, 86, 39, 40, 0)
s = 2: (0, 39, 17, 32, 69, 44, 21, 43, 41, 23, 42, 0)
s = 3: (0, 87, 13, 22, 116, 38, 28, 45, 87, 24, 23, 0)
s = 4: (0, 65, 17, 39, 72, 45, 31, 48, 80, 22, 51, 0)
s = 5: (0, 52, 13, 26, 108, 37, 21, 39, 46, 20, 36, 0)
s = 6: (0, 64, 10, 31, 116, 49, 36, 47, 64, 29, 47, 0)
s = 7: (0, 95, 17, 22, 57, 33, 33, 49, 55, 21, 66, 0)
s = 8: (0, 56, 11, 37, 93, 46, 29, 31, 81, 22, 29, 0)
s = 9: (0, 58, 21, 31, 129, 34, 37, 68, 53, 17, 22, 0)
s = 10: (0, 39, 13, 28, 79, 26, 19, 33, 106, 13, 31, 0)
s = 11: (0, 73, 10, 41, 71, 23, 27, 24, 69, 18, 52, 0)
s = 12: (0, 61, 11, 26, 87, 26, 22, 70, 56, 26, 47, 0)
s = 13: (0, 52, 9, 33, 75, 39, 34, 34, 55, 16, 58, 0)
s = 14: (0, 52, 11, 33, 76, 41, 28, 33, 65, 27, 45, 0)
s = 15: (0, 77, 11, 25, 71, 36, 32, 38, 75, 19, 41, 0)
s = 16: (0, 60, 9, 38, 87, 59, 21, 56, 57, 17, 52, 0)
s = 17: (0, 46, 10, 23, 105, 38, 38, 62, 59, 20, 36, 0)
s = 18: (0, 84, 10, 27, 116, 53, 24, 32, 73, 26, 28, 0)
s = 19: (0, 92, 16, 29, 88, 60, 39, 27, 65, 20, 58, 0)
s = 20: (0, 44, 10, 45, 111, 55, 22, 30, 55, 16, 31, 0)
s = 21: (0, 77, 13, 25, 119, 35, 21, 26, 39, 13, 31, 0)
s = 22: (0, 71, 11, 31, 98, 41, 20, 58, 43, 16, 34, 0)
s = 23: (0, 54, 15, 26, 102, 55, 17, 34, 45, 39, 24, 0)
s = 24: (0, 37, 19, 43, 92, 42, 18, 36, 53, 29, 44, 0)
s = 25: (0, 62, 11, 35, 100, 47, 25, 23, 47, 17, 49, 0)
s = 26: (0, 85, 14, 41, 51, 27, 37, 29, 90, 17, 30, 0)
s = 27: (0, 82, 15, 32, 115, 23, 36, 30, 53, 27, 35, 0)
s = 28: (0, 44, 12, 17, 71, 53, 22, 27, 106, 19, 38, 0)
s = 29: (0, 38, 14, 34, 72, 29, 20, 37, 92, 20, 38, 0)
s = 30: (0, 47, 14, 33, 47, 60, 29, 43, 90, 31, 24, 0)
s = 31: (0, 56, 13, 27, 52, 57, 24, 25, 80, 21, 41, 0)
s = 32: (0, 52, 14, 37, 59, 59, 16, 48, 54, 20, 25, 0)
s = 33: (0, 43, 17, 39, 52, 58, 29, 39, 56, 22, 23, 0)
s = 34: (0, 63, 9, 54, 122, 40, 21, 40, 61, 26, 54, 0)
s = 35: (0, 72, 9, 39, 103, 31, 35, 47, 75, 18, 24, 0)
s = 36: (0, 67, 16, 28, 109, 36, 30, 30, 46, 19, 47, 0)
s = 37: (0, 36, 13, 33, 93, 26, 14, 37, 40, 14, 54, 0)
s = 38: (0, 42, 10, 30, 95, 33, 35, 25, 50, 18, 53, 0)
s = 39: (0, 73, 17, 44, 67, 56, 20, 59, 56, 27, 50, 0)
s = 40: (0, 48, 10, 25, 116, 36, 14, 49, 40, 23, 50, 0)
s = 41: (0, 76, 11, 32, 90, 35, 35, 43, 47, 27, 48, 0)
s = 42: (0, 38, 15, 46, 52, 26, 15, 31, 59, 30, 31, 0)
s = 43: (0, 35, 18, 17, 128, 44, 38, 53, 98, 21, 27, 0)
s = 44: (0, 77, 21, 26, 105, 28, 33, 25, 79, 21, 42, 0)
s = 45: (0, 35, 10, 27, 101, 31, 17, 65, 79, 38, 33, 0)
s = 46: (0, 44, 10, 30, 64, 33, 30, 44, 53, 37, 24, 0)
s = 47: (0, 78, 11, 26, 82, 36, 24, 45, 90, 14, 38, 0)
s = 48: (0, 39, 17, 32, 69, 41, 30, 37, 79, 31, 42, 0)
s = 49: (0, 72, 10, 27, 90, 50, 40, 43, 82, 21, 46, 0)
s = 50: (0, 76, 10, 26, 70, 22, 27, 55, 58, 20, 27, 0)
s = 51: (0, 52, 10, 30, 56, 42, 21, 35, 54, 21, 47, 0)
s = 52: (0, 60, 13, 29, 113, 28, 36, 39, 63, 39, 23, 0)
s = 53: (0, 52, 9, 23, 140, 52, 36, 40, 54, 17, 44, 0)
s = 54: (0, 49, 13, 33, 74, 41, 15, 30, 84, 22, 40, 0)
s = 55: (0, 64, 10, 45, 86, 55, 18, 41, 50, 24, 40, 0)
s = 56: (0, 48, 10, 23, 102, 38, 23, 33, 48, 31, 47, 0)
s = 57: (0, 83, 10, 40, 59, 30, 35, 44, 95, 15, 37, 0)
s = 58: (0, 51, 18, 38, 121, 28, 23, 33, 61, 26, 55, 0)
s = 59: (0, 62, 16, 29, 68, 46, 29, 36, 73, 29, 24, 0)
s = 60: (0, 70, 14, 33, 75, 27, 21, 55, 57, 21, 55, 0)
s = 61: (0, 39, 11, 46, 67, 26, 38, 32, 61, 47, 35, 0)
s = 62: (0, 64, 11, 22, 113, 36, 28, 48, 42, 28, 26, 0)
s = 63: (0, 70, 14, 32, 62, 53, 28, 38, 82, 31, 25, 0)
s = 64: (0, 69, 9, 23, 69, 28, 40, 49, 72, 28, 41, 0)
s = 65: (0, 73, 14, 20, 76, 29, 23, 30, 47, 31, 31, 0)
s = 66: (0, 53, 11, 30, 120, 27, 24, 54, 78, 16, 29, 0)
s = 67: (0, 53, 9, 46, 78, 34, 22, 34, 107, 29, 30, 0)
s = 68: (0, 72, 13, 41, 102, 37, 32, 30, 43, 29, 40, 0)
s = 69: (0, 81, 11, 36, 84, 40, 14, 35, 82, 18, 39, 0)
s = 70: (0, 61, 15, 31, 65, 53, 37, 57, 78, 14, 52, 0)
s = 71: (0, 75, 10, 21, 95, 28, 25, 30, 38, 28, 31, 0)
s = 72: (0, 51, 16, 29, 135, 65, 21, 48, 65, 32, 44, 0)
s = 73: (0, 77, 16, 21, 86, 37, 39, 63, 52, 18, 34, 0)
s = 74: (0, 56, 9, 28, 68, 60, 17, 30, 73, 20, 23, 0)
s = 75: (0, 48, 14, 33, 76, 55, 17, 38, 67, 15, 32, 0)
s = 76: (0, 67, 12, 39, 96, 50, 19, 33, 38, 20, 25, 0)
s = 77: (0, 40, 9, 23, 54, 38, 33, 42, 49, 24, 29, 0)
s = 78: (0, 40, 12, 27, 95, 64, 23, 45, 68, 39, 32, 0)
s = 79: (0, 59, 18, 33, 132, 30, 26, 34, 81, 23, 43, 0)
s = 80: (0, 71, 13, 22, 123, 61, 19, 37, 72, 22, 49, 0)
s = 81: (0, 86, 12, 25, 113, 31, 21, 40, 48, 26, 25, 0)
s = 82: (0, 48, 8, 40, 64, 43, 29, 34, 36, 18, 31, 0)
s = 83: (0, 42, 12, 21, 97, 40, 21, 31, 76, 35, 67, 0)
s = 84: (0, 67, 15, 53, 91, 40, 18, 28, 57, 15, 32, 0)
s = 85: (0, 97, 11, 38, 115, 39, 26, 26, 112, 24, 33, 0)
s = 86: (0, 64, 11, 25, 103, 24, 33, 58, 50, 24, 39, 0)
s = 87: (0, 89, 13, 40, 117, 22, 16, 34, 40, 42, 25, 0)
s = 88: (0, 59, 18, 33, 78, 29, 14, 32, 46, 29, 39, 0)
s = 89: (0, 37, 14, 26, 84, 50, 28, 45, 62, 22, 47, 0)
s = 90: (0, 61, 15, 26, 111, 30, 27, 30, 60, 35, 45, 0)
s = 91: (0, 60, 9, 28, 65, 25, 25, 31, 98, 18, 30, 0)
s = 92: (0, 59, 13, 30, 76, 37, 26, 37, 50, 18, 22, 0)
s = 93: (0, 98, 12, 31, 55, 42, 16, 34, 79, 24, 36, 0)
s = 94: (0, 53, 11, 39, 88, 29, 25, 39, 56, 35, 27, 0)
s = 95: (0, 59, 11, 41, 107, 44, 22, 30, 64, 27, 26, 0)
s = 96: (0, 40, 8, 45, 79, 23, 17, 46, 84, 19, 40, 0)
s = 97: (0, 70, 13, 42, 53, 46, 15, 37, 84, 22, 28, 0)
s = 98: (0, 56, 9, 38, 71, 30, 18, 70, 72, 41, 33, 0)
s = 99: (0, 70, 11, 37, 63, 43, 21, 26, 88, 25, 22, 0)
s = 100: (0, 63, 18, 36, 94, 41, 34, 77, 75, 26, 44, 0)
s = 101: (0, 42, 11, 47, 100, 26, 31, 61, 74, 14, 51, 0)
s = 102: (0, 86, 8, 22, 61, 39, 22, 45, 91, 40, 48, 0)
s = 103: (0, 40, 12, 23, 80, 49, 32, 64, 58, 19, 35, 0)
s = 104: (0, 60, 11, 28, 125, 39, 21, 41, 41, 24, 41, 0)
s = 105: (0, 61, 11, 24, 84, 24, 15, 27, 84, 26, 35, 0)
s = 106: (0, 50, 9, 52, 109, 32, 21, 47, 74, 28, 32, 0)
s = 107: (0, 92, 15, 22, 91, 44, 20, 36, 34, 20, 27, 0)
s = 108: (0, 39, 20, 33, 120, 34, 21, 24, 82, 36, 54, 0)
s = 109: (0, 71, 8, 18, 92, 46, 20, 35, 53, 22, 56, 0)
s = 110: (0, 106, 16, 36, 126, 34, 15, 46, 95, 18, 39, 0)
s = 111: (0, 47, 9, 40, 62, 30, 20, 35, 75, 22, 30, 0)
s = 112: (0, 109, 19, 36, 115, 24, 29, 43, 40, 19, 46, 0)
s = 113: (0, 85, 10, 25, 77, 22, 28, 66, 76, 31, 42, 0)
s = 114: (0, 76, 11, 36, 59, 41, 23, 23, 71, 38, 54, 0)
s = 115: (0, 90, 8, 24, 96, 28, 23, 35, 81, 35, 42, 0)
s = 116: (0, 49, 12, 28, 84, 47, 43, 61, 62, 30, 44, 0)
s = 117: (0, 74, 15, 20, 84, 53, 23, 53, 86, 25, 34, 0)
s = 118: (0, 40, 19, 30, 56, 29, 32, 30, 38, 30, 22, 0)
s = 119: (0, 90, 9, 39, 73, 32, 36, 27, 67, 32, 41, 0)
s = 120: (0, 67, 11, 37, 107, 36, 22, 49, 79, 19, 45, 0)
s = 121: (0, 78, 18, 27, 104, 29, 23, 31, 68, 16, 30, 0)
s = 122: (0, 37, 15, 32, 82, 48, 36, 26, 67, 29, 36, 0)
s = 123: (0, 64, 10, 43, 89, 30, 40, 51, 70, 30, 21, 0)
s = 124: (0, 42, 7, 28, 79, 25, 32, 39, 73, 33, 42, 0)
s = 125: (0, 54, 15, 33, 107, 25, 33, 54, 77, 24, 46, 0)
s = 126: (0, 61, 7, 33, 90, 55, 23, 35, 71, 34, 56, 0)
s = 127: (0, 56, 15, 23, 92, 42, 27, 27, 80, 23, 43, 0)
s = 128: (0, 110, 10, 49, 134, 34, 19, 38, 60, 17, 31, 0)
s = 129: (0, 50, 15, 29, 79, 36, 20, 46, 44, 23, 52, 0)
s = 130: (0, 71, 14, 44, 114, 49, 27, 47, 80, 18, 51, 0)
s = 131: (0, 50, 14, 32, 134, 56, 17, 31, 69, 21, 23, 0)
s = 132: (0, 64, 13, 27, 112, 41, 24, 49, 53, 32, 30, 0)
s = 133: (0, 44, 12, 46, 142, 30, 27, 34, 51, 33, 49, 0)
s = 134: (0, 34, 8, 40, 75, 30, 20, 46, 65, 16, 22, 0)
s = 135: (0, 52, 11, 37, 69, 34, 32, 53, 42, 36, 48, 0)
s = 136: (0, 53, 13, 51, 68, 34, 29, 49, 44, 39, 34, 0)
s = 137: (0, 38, 13, 30, 106, 42, 30, 44, 47, 35, 63, 0)
s = 138: (0, 41, 7, 23, 73, 38, 24, 60, 52, 23, 51, 0)
s = 139: (0, 49, 9, 25, 104, 23, 31, 25, 79, 28, 69, 0)
s = 140: (0, 66, 12, 44, 106, 51, 32, 34, 85, 18, 45, 0)
s = 141: (0, 80, 14, 34, 90, 44, 28, 63, 59, 19, 23, 0)
s = 142: (0, 68, 11, 30, 102, 42, 21, 33, 68, 19, 28, 0)
s = 143: (0, 53, 12, 36, 54, 31, 36, 42, 84, 26, 53, 0)
s = 144: (0, 42, 18, 39, 116, 30, 13, 43, 68, 23, 30, 0)
s = 145: (0, 72, 9, 34, 159, 45, 18, 24, 78, 29, 35, 0)
s = 146: (0, 52, 8, 22, 81, 43, 15, 65, 51, 14, 48, 0)
s = 147: (0, 88, 12, 60, 52, 34, 18, 40, 67, 32, 30, 0)
s = 148: (0, 44, 10, 52, 52, 39, 26, 61, 35, 25, 56, 0)
s = 149: (0, 93, 12, 41, 101, 31, 27, 43, 34, 27, 42, 0)
s = 150: (0, 62, 14, 30, 70, 39, 43, 47, 44, 22, 38, 0)
s = 151: (0, 111, 17, 25, 53, 49, 23, 39, 44, 23, 35, 0)
s = 152: (0, 83, 16, 39, 56, 35, 22, 31, 62, 21, 26, 0)
s = 153: (0, 57, 11, 24, 65, 31, 36, 44, 61, 16, 39, 0)
s = 154: (0, 58, 13, 22, 115, 43, 26, 61, 53, 18, 53, 0)
s = 155: (0, 66, 9, 39, 95, 48, 26, 67, 77, 15, 32, 0)
s = 156: (0, 54, 10, 28, 58, 27, 39, 48, 77, 35, 27, 0)
s = 157: (0, 37, 9, 24, 65, 53, 31, 41, 71, 47, 49, 0)
s = 158: (0, 77, 15, 33, 101, 29, 22, 57, 63, 17, 34, 0)
s = 159: (0, 51, 16, 42, 119, 40, 21, 60, 67, 14, 39, 0)
s = 160: (0, 78, 11, 42, 97, 44, 25, 46, 51, 22, 33, 0)
s = 161: (0, 72, 15, 43, 90, 25, 35, 37, 40, 24, 39, 0)
s = 162: (0, 44, 9, 19, 152, 29, 28, 43, 86, 32, 33, 0)
s = 163: (0, 35, 13, 42, 75, 44, 18, 26, 88, 33, 50, 0)
s = 164: (0, 58, 8, 22, 61, 26, 15, 42, 41, 19, 36, 0)
s = 165: (0, 59, 13, 37, 64, 43, 21, 52, 75, 28, 32, 0)
s = 166: (0, 58, 11, 36, 102, 33, 23, 33, 85, 19, 52, 0)
s = 167: (0, 65, 19, 21, 101, 25, 24, 22, 99, 20, 42, 0)
s = 168: (0, 37, 13, 36, 61, 74, 15, 25, 41, 27, 22, 0)
s = 169: (0, 59, 9, 35, 85, 53, 23, 25, 63, 13, 33, 0)
s = 170: (0, 36, 11, 42, 117, 50, 22, 31, 89, 17, 29, 0)
s = 171: (0, 82, 15, 39, 92, 43, 15, 36, 84, 20, 36, 0)
s = 172: (0, 109, 12, 49, 109, 33, 31, 51, 50, 24, 38, 0)
s = 173: (0, 62, 13, 28, 84, 38, 22, 31, 72, 19, 30, 0)
s = 174: (0, 67, 10, 32, 84, 36, 21, 52, 74, 32, 42, 0)
s = 175: (0, 70, 14, 28, 85, 30, 33, 51, 96, 16, 29, 0)
s = 176: (0, 65, 15, 38, 89, 37, 17, 28, 57, 16, 57, 0)
s = 177: (0, 42, 7, 58, 111, 40, 20, 33, 67, 32, 41, 0)
s = 178: (0, 93, 18, 39, 125, 55, 30, 43, 54, 28, 58, 0)
s = 179: (0, 67, 22, 35, 102, 59, 13, 36, 98, 18, 38, 0)
s = 180: (0, 75, 10, 23, 79, 35, 14, 44, 46, 32, 31, 0)
s = 181: (0, 67, 16, 26, 56, 34, 23, 34, 64, 22, 33, 0)
s = 182: (0, 42, 11, 32, 140, 27, 37, 31, 72, 35, 45, 0)
s = 183: (0, 47, 12, 22, 112, 52, 28, 60, 50, 31, 55, 0)
s = 184: (0, 63, 11, 22, 81, 48, 16, 33, 54, 24, 64, 0)
s = 185: (0, 35, 17, 25, 87, 54, 20, 59, 56, 22, 40, 0)
s = 186: (0, 83, 12, 41, 91, 44, 21, 41, 38, 29, 39, 0)
s = 187: (0, 56, 15, 54, 90, 34, 21, 43, 36, 21, 49, 0)
s = 188: (0, 55, 11, 28, 77, 35, 29, 30, 54, 30, 43, 0)
s = 189: (0, 38, 13, 20, 138, 50, 36, 52, 82, 23, 49, 0)
s = 190: (0, 53, 13, 23, 102, 25, 25, 52, 71, 24, 32, 0)
s = 191: (0, 57, 8, 24, 115, 51, 23, 40, 93, 28, 30, 0)
s = 192: (0, 40, 14, 46, 56, 29, 35, 48, 95, 24, 32, 0)
s = 193: (0, 72, 14, 32, 77, 41, 41, 48, 87, 29, 35, 0)
s = 194: (0, 48, 13, 38, 113, 38, 33, 55, 41, 32, 31, 0)
s = 195: (0, 58, 12, 36, 94, 34, 34, 29, 42, 20, 53, 0)
s = 196: (0, 63, 13, 29, 75, 38, 21, 54, 47, 24, 34, 0)
s = 197: (0, 62, 14, 40, 64, 33, 25, 36, 85, 18, 44, 0)
s = 198: (0, 47, 8, 39, 105, 21, 32, 26, 46, 15, 40, 0)
s = 199: (0, 44, 13, 29, 94, 52, 21, 33, 89, 26, 34, 0)
s = 200: (0, 59, 16, 27, 85, 42, 23, 35, 86, 30, 42, 0)
************************************************************************
ES/LS-VALUES:
jobnr.   ES(i)    LS(i)
------------------------------------------------------------------------
  0        0        0
  1        0       49
  2        0       65
  3        0       52
  4        3       56
  5       11       61
  6       16       68
  7       16       68
  8       16       67
  9       19       72
 10       19       72
 11       24       76
************************************************************************
BIG-M-VALUES:
M1 = 42, M2 = 329
************************************************************************
